outputs/case_397.model.txt
fee_charged = False
fee_standard_disclosed = False
bank_operate_as_agent = False
bank_operate_as_broker = True
guarantee_insurance_purchased = False
bank_separately_apply_agent_broker_rules = True
bank_permission_granted = True
bank_permission_and_separate_application = True
license_permitted = True
duty_of_care_observed = True
related_insurance_type_compliance = True
duty_of_care_and_fidelity = True
penalty = False
practice_certificate_held = True
related_insurance_purchased = True
written_analysis_report_provided = True
liability_insurance_purchased = True
agent_type = True
guarantee_deposit_paid = True
pre_contract_report_and_fee_disclosure = True
duty_of_fidelity_observed = True
license_and_insurance_compliance = True